35590
0 0 0 0 0 1 0 0 1 0 0 0 1 1 0 0 0 1 0 1 0 1 0 0 0 0 1 1 1 0 
27 19 21 27 5 12 21 27 27 17 26 28 13 13 28 27 13 8 27 27 27 21 5 21 13 27 27 19 26 21 19 26 26 21 27 12 8 8 21 21 27 8 19 26 8 26 13 21 19 8 27 27 21 21 8 19 28 8 27 12 26 5 12 8 8 12 5 19 19 12 27 12 19 8 5 13 8 5 8 27 13 17 26 12 26 13 19 5 27 28 28 19 12 12 5 13 28 19 17 28 17 21 12 27 26 5 26 21 27 13 19 26 27 12 12 8 28 12 17 8 26 28 17 19 26 21 5 28 26 17 28 27 12 8 5 8 13 13 28 17 12 27 19 12 12 5 21 21 27 12 21 17 5 17 8 28 5 21 13 13 13 27 13 5 5 17 5 26 13 21 5 8 19 8 26 5 17 8 26 8 5 21 21 19 19 8 28 13 17 21 21 21 19 26 12 12 27 21 8 19 
